%nprocshared=2
%mem=2GB
#p rhf/cc-pvqz

Wasser Aufgabe A1 Teil1

0 1
 O                  2.04656024    1.32632772    0.99223310
 H                  3.04656024    1.32632772    0.99223310
 H                  1.72610565    2.23126355    0.99223310

