%nprocshared=2
%mem=2GB
#p rhf/sto-3g

Wasser Aufgabe A1 Teil3

0 1
 O                  0.00000000    0.00000000    0.11280100
 H                  0.00000000    0.75150800   -0.45119400
 H                  0.00000000   -0.75150800   -0.45119400

