%nprocshared=2
%mem=2GB
#p opt=tight freq rhf/cc-pvqz symm=loose

Wasser Aufgabe A1 Teil2

0 1
 O                  0.00000000    0.11316800    0.00000000
 H                  0.79964200   -0.48730900    0.00000000
 H                 -0.79964200   -0.41803200    0.00000000

