%nprocshared=8
%mem=8GB
#p nmr=giao rmp2=full/aug-cc-pvdz

Aufgabe 3 NMR

0 1
 C                  0.00593200   -1.91481400    0.00000000
 C                  0.00832900   -1.20681100    1.21484500
 C                  0.00832900    0.19907400    1.21086400
 C                  0.00522100    0.92111000    0.00000000
 C                  0.00832900    0.19907400   -1.21086400
 C                  0.00832900   -1.20681100   -1.21484500
 H                  0.00863500   -3.00781800    0.00000000
 H                  0.01357400   -1.74874100    2.16444700
 H                  0.01549900    0.74334400    2.16058100
 H                  0.01549900    0.74334400   -2.16058100
 H                  0.01357400   -1.74874100   -2.16444700
 C                 -0.03217300    2.43233900    0.00000000
 H                 -1.07233700    2.79658000    0.00000000
 H                  0.46589400    2.84153200    0.89170100
 H                  0.46589400    2.84153200   -0.89170100

