%nprocshared=8
%mem=8GB
#p opt rmp2=full/aug-cc-pvdz

Aufgabe 3

0 1
 C                  0.00000171   -1.90282400    0.00000000
 C                 -0.00000034   -1.20212400    1.21364800
 C                 -0.00000108    0.19927600    1.21364800
 C                 -0.00000033    0.89997600    0.00000000
 C                 -0.00000108    0.19927600   -1.21364800
 C                 -0.00000034   -1.20212400   -1.21364800
 H                  0.00000423   -2.97282400    0.00000000
 H                 -0.00000113   -1.73712400    2.14029518
 H                 -0.00000319    0.73427600    2.14029518
 H                 -0.00000319    0.73427600   -2.14029518
 H                 -0.00000113   -1.73712400   -2.14029518
 C                  0.00000133    2.43997600    0.00000000
 H                 -1.00880396    2.79664375    0.00000000
 H                  0.50440456    2.79664212    0.87365134
 H                  0.50440456    2.79664212   -0.87365134

