%nprocshared=2
%mem=2GB
%chk=cis_dce_mp2.chk
#p opt freq rmp2/6-311g(d,p) geom=connectivity

Aufgabe2 cis_mp2 6-331g

0 1
 C                  0.00000000    0.65555500    0.95375400
 C                  0.00000000   -0.65555500    0.95375400
 H                  0.00000000    1.19852800    1.87712000
 H                  0.00000000   -1.19852800    1.87712000
 Cl                 0.00000000    1.65993700   -0.44703800
 Cl                 0.00000000   -1.65993700   -0.44703800

 1 2 2.0 3 1.0 5 1.0
 2 4 1.0 6 1.0
 3
 4
 5
 6

