%nprocshared=2
%mem=2GB
#p opt freq rmp2/6-311g(d,p) scrf=check

Aufgabe 2 HF trans MP2

0 1
 C                 -0.43789671    0.48586718    0.00000000
 C                  0.43789671   -0.48586718    0.00000000
 H                 -1.49820541    0.33894457    0.00000000
 H                  1.49820541   -0.33894457    0.00000000
 Cl                -0.04884624   -2.14883941    0.00000000
 Cl                 0.04884624    2.14883941    0.00000000

