%nprocshared=8
%mem=8GB
%chk=n2_opt.chk
#p opt rhf/6-311g(d,p)

Stickstoff A4 Teil 2

0 1
 N                  1.20583349   -2.43970312    0.01578522
 N                  0.11383349   -2.43970312    0.01578522

