%nprocshared=6
%mem=6GB
#p opt=modredundant rhf/6-311g(d,p)

A4 Stickstoff Teil1

0 1
 N                 -2.11984031    1.62337660    0.00000000
 N                 -2.71984031    1.62337660    0.00000000

B 2 1 S 20 0.200000

