%nprocshared=12
%mem=12GB
#p opt=(calcall,ts) freq rhf/aug-cc-pvdz

A5 Teil 2

-1 1
 C                 -1.48407800   -0.44904700    0.04245800
 H                 -0.98322600   -1.34450000    0.34320400
 H                 -0.98481600    0.25675000   -0.58661100
 H                 -2.50065200   -0.28347200    0.32933700
 Br                -0.66643400    0.74721100    2.10115600
 Cl                -2.27980100   -1.61323200   -1.96104600

