%nprocshared=8
%mem=8GB
#p freq rhf/aug-cc-pvdz

Aufgabe 5 teil 3 Br Anion

-1 1
 Br                -2.80148403    1.99443411    0.00000000

