%nprocshared=10
%mem=8GB
#p opt freq rhf/aug-cc-pvdz

A5 - Teil 3 - CH3Br

0 1
 C                 -3.02411852    2.21706861    0.00000000
 H                 -2.66746410    1.20825861    0.00000000
 H                 -2.66744568    2.72146680   -0.87365150
 H                 -4.09411852    2.21708180    0.00000000
 Br                -2.38744084    3.11744295    1.55950876

