%nprocshared=8
%mem=8GB
%chk=cl-.chk
#p freq rhf/aug-cc-pvdz

Aufgabe 5 Teil3 Cl anion

-1 1
 Cl                -3.26530589    1.66048235    0.00000000

